NAME: tsp30-19
TYPE: TSP
DIMENSION: 30
EDGE_WEIGHT_TYPE: EUC_2D
NODE_COORD_SECTION
0 2 35
1 99 37
2 91 88
3 79 34
4 53 56
5 89 61
6 21 67
7 86 15
8 48 16
9 20 96
10 94 37
11 41 21
12 61 94
13 22 47
14 100 65
15 96 31
16 7 22
17 61 37
18 79 28
19 35 56
20 70 78
21 32 51
22 99 8
23 52 1
24 48 26
25 19 90
26 5 31
27 95 69
28 66 76
29 87 65
EOF